p tw 225 47251 2 
1 3 
1 4 
1 5 
1 6 
1 7 
1 8 
1 9 
1 10 
1 11 
1 12 
1 13 
1 14 
1 15 
1 16 
1 25 
1 31 
1 45 
1 46 
1 50 
1 61 
1 67 
1 76 
1 81 
1 91 
1 98 
1 106 
1 109 
1 121 
1 123 
1 136 
1 149 
1 151 
1 161 
1 166 
1 167 
1 181 
1 189 
1 196 
1 208 
1 211 
1 222 
2 3 
2 4 
2 5 
2 6 
2 7 
2 8 
2 9 
2 10 
2 11 
2 12 
2 13 
2 14 
2 15 
2 17 
2 21 
2 31 
2 32 
2 47 
2 59 
2 62 
2 70 
2 77 
2 80 
2 92 
2 97 
2 107 
2 120 
2 122 
2 131 
2 137 
2 148 
2 152 
2 159 
2 167 
2 168 
2 182 
2 188 
2 197 
2 207 
2 212 
2 214 
3 4 
3 5 
3 6 
3 7 
3 8 
3 9 
3 10 
3 11 
3 12 
3 13 
3 14 
3 15 
3 17 
3 18 
3 33 
3 38 
3 48 
3 52 
3 63 
3 72 
3 76 
3 78 
3 93 
3 104 
3 108 
3 116 
3 123 
3 126 
3 138 
3 144 
3 153 
3 154 
3 168 
3 178 
3 183 
3 190 
3 198 
3 200 
3 213 
3 225 
4 5 
4 6 
4 7 
4 8 
4 9 
4 10 
4 11 
4 12 
4 13 
4 14 
4 15 
4 18 
4 19 
4 32 
4 34 
4 46 
4 49 
4 64 
4 75 
4 79 
4 89 
4 94 
4 103 
4 109 
4 117 
4 124 
4 129 
4 139 
4 146 
4 154 
4 157 
4 169 
4 175 
4 184 
4 185 
4 199 
4 201 
4 214 
4 218 
5 6 
5 7 
5 8 
5 9 
5 10 
5 11 
5 12 
5 13 
5 14 
5 15 
5 20 
5 23 
5 33 
5 35 
5 50 
5 54 
5 65 
5 71 
5 80 
5 88 
5 95 
5 102 
5 110 
5 115 
5 125 
5 134 
5 139 
5 140 
5 151 
5 155 
5 170 
5 171 
5 185 
5 187 
5 200 
5 210 
5 212 
5 215 
6 7 
6 8 
6 9 
6 10 
6 11 
6 12 
6 13 
6 14 
6 15 
6 21 
6 30 
6 36 
6 42 
6 51 
6 58 
6 62 
6 66 
6 81 
6 83 
6 96 
6 100 
6 111 
6 114 
6 121 
6 126 
6 141 
6 142 
6 156 
6 164 
6 170 
6 171 
6 184 
6 186 
6 198 
6 201 
6 216 
6 221 
7 8 
7 9 
7 10 
7 11 
7 12 
7 13 
7 14 
7 15 
7 22 
7 26 
7 35 
7 37 
7 49 
7 52 
7 63 
7 67 
7 82 
7 90 
7 97 
7 99 
7 107 
7 112 
7 127 
7 128 
7 136 
7 142 
7 157 
7 162 
7 172 
7 179 
7 186 
7 187 
7 202 
7 205 
7 217 
7 223 
8 9 
8 10 
8 11 
8 12 
8 13 
8 14 
8 15 
8 19 
8 23 
8 38 
8 39 
8 47 
8 53 
8 61 
8 68 
8 78 
8 83 
8 98 
8 105 
8 113 
8 118 
8 128 
8 132 
8 140 
8 143 
8 158 
8 160 
8 173 
8 176 
8 188 
8 194 
8 202 
8 203 
8 216 
8 218 
9 10 
9 11 
9 12 
9 13 
9 14 
9 15 
9 24 
9 27 
9 39 
9 41 
9 54 
9 55 
9 69 
9 74 
9 77 
9 84 
9 91 
9 99 
9 111 
9 114 
9 125 
9 129 
9 143 
9 144 
9 153 
9 159 
9 174 
9 180 
9 189 
9 193 
9 199 
9 204 
9 217 
9 219 
10 11 
10 12 
10 13 
10 14 
10 15 
10 24 
10 25 
10 40 
10 44 
10 53 
10 55 
10 66 
10 70 
10 85 
10 87 
10 94 
10 100 
10 108 
10 115 
10 130 
10 133 
10 137 
10 145 
10 160 
10 165 
10 172 
10 175 
10 190 
10 191 
10 196 
10 205 
10 215 
10 220 
11 12 
11 13 
11 14 
11 15 
11 20 
11 26 
11 34 
11 41 
11 48 
11 56 
11 71 
11 73 
11 84 
11 86 
11 92 
11 101 
11 112 
11 116 
11 131 
11 135 
11 145 
11 146 
11 156 
11 161 
11 176 
11 177 
11 181 
11 191 
11 203 
11 206 
11 221 
11 224 
12 13 
12 14 
12 15 
12 27 
12 28 
12 40 
12 42 
12 56 
12 57 
12 68 
12 72 
12 82 
12 87 
12 96 
12 102 
12 110 
12 117 
12 124 
12 132 
12 138 
12 147 
12 152 
12 162 
12 166 
12 177 
12 192 
12 195 
12 207 
12 209 
12 219 
12 222 
13 14 
13 15 
13 16 
13 28 
13 37 
13 43 
13 51 
13 58 
13 65 
13 73 
13 79 
13 88 
13 93 
13 103 
13 118 
13 119 
13 122 
13 133 
13 148 
13 150 
13 158 
13 163 
13 174 
13 178 
13 192 
13 193 
13 206 
13 208 
13 220 
13 223 
14 15 
14 22 
14 29 
14 36 
14 44 
14 59 
14 60 
14 64 
14 74 
14 86 
14 89 
14 95 
14 104 
14 106 
14 119 
14 130 
14 134 
14 147 
14 149 
14 163 
14 164 
14 173 
14 179 
14 182 
14 194 
14 204 
14 209 
14 213 
14 224 
15 29 
15 30 
15 43 
15 45 
15 57 
15 60 
15 69 
15 75 
15 85 
15 90 
15 101 
15 105 
15 113 
15 120 
15 127 
15 135 
15 141 
15 150 
15 155 
15 165 
15 169 
15 180 
15 183 
15 195 
15 197 
15 210 
15 211 
15 225 
16 17 
16 18 
16 19 
16 20 
16 21 
16 22 
16 23 
16 24 
16 25 
16 26 
16 27 
16 28 
16 29 
16 30 
16 31 
16 37 
16 46 
16 51 
16 61 
16 65 
16 76 
16 79 
16 91 
16 93 
16 106 
16 119 
16 121 
16 122 
16 136 
16 150 
16 151 
16 158 
16 166 
16 174 
16 181 
16 192 
16 196 
16 206 
16 211 
16 220 
17 18 
17 19 
17 20 
17 21 
17 22 
17 23 
17 24 
17 25 
17 26 
17 27 
17 28 
17 29 
17 30 
17 32 
17 38 
17 47 
17 52 
17 62 
17 72 
17 76 
17 77 
17 92 
17 104 
17 107 
17 116 
17 122 
17 126 
17 137 
17 144 
17 152 
17 154 
17 167 
17 178 
17 182 
17 190 
17 197 
17 200 
17 212 
17 225 
18 19 
18 20 
18 21 
18 22 
18 23 
18 24 
18 25 
18 26 
18 27 
18 28 
18 29 
18 30 
18 32 
18 33 
18 46 
18 48 
18 63 
18 75 
18 78 
18 89 
18 93 
18 103 
18 108 
18 117 
18 123 
18 129 
18 138 
18 146 
18 153 
18 157 
18 168 
18 175 
18 183 
18 185 
18 198 
18 201 
18 213 
18 218 
19 20 
19 21 
19 22 
19 23 
19 24 
19 25 
19 26 
19 27 
19 28 
19 29 
19 30 
19 34 
19 39 
19 47 
19 49 
19 61 
19 64 
19 78 
19 79 
19 94 
19 105 
19 109 
19 118 
19 124 
19 132 
19 139 
19 140 
19 154 
19 160 
19 169 
19 176 
19 184 
19 194 
19 199 
19 202 
19 214 
19 216 
20 21 
20 22 
20 23 
20 24 
20 25 
20 26 
20 27 
20 28 
20 29 
20 30 
20 34 
20 35 
20 48 
20 50 
20 65 
20 73 
20 80 
20 84 
20 92 
20 95 
20 110 
20 112 
20 125 
20 135 
20 140 
20 145 
20 155 
20 156 
20 170 
20 177 
20 181 
20 185 
20 200 
20 203 
20 215 
20 224 
21 22 
21 23 
21 24 
21 25 
21 26 
21 27 
21 28 
21 29 
21 30 
21 31 
21 36 
21 51 
21 59 
21 66 
21 70 
21 80 
21 81 
21 96 
21 97 
21 111 
21 120 
21 126 
21 131 
21 141 
21 148 
21 156 
21 159 
21 168 
21 171 
21 186 
21 188 
21 201 
21 207 
21 214 
21 216 
22 23 
22 24 
22 25 
22 26 
22 27 
22 28 
22 29 
22 30 
22 36 
22 37 
22 52 
22 60 
22 64 
22 67 
22 82 
22 86 
22 95 
22 97 
22 106 
22 112 
22 127 
22 130 
22 142 
22 147 
22 157 
22 163 
22 172 
22 173 
22 182 
22 187 
22 202 
22 204 
22 213 
22 217 
23 24 
23 25 
23 26 
23 27 
23 28 
23 29 
23 30 
23 33 
23 38 
23 53 
23 54 
23 68 
23 71 
23 83 
23 88 
23 98 
23 102 
23 113 
23 115 
23 128 
23 134 
23 139 
23 143 
23 151 
23 158 
23 171 
23 173 
23 187 
23 188 
23 203 
23 210 
23 212 
23 218 
24 25 
24 26 
24 27 
24 28 
24 29 
24 30 
24 39 
24 44 
24 53 
24 54 
24 66 
24 69 
24 84 
24 87 
24 94 
24 99 
24 108 
24 114 
24 129 
24 133 
24 137 
24 144 
24 159 
24 165 
24 172 
24 174 
24 189 
24 191 
24 196 
24 204 
24 215 
24 219 
25 26 
25 27 
25 28 
25 29 
25 30 
25 40 
25 45 
25 50 
25 55 
25 67 
25 70 
25 81 
25 85 
25 98 
25 100 
25 109 
25 115 
25 123 
25 130 
25 145 
25 149 
25 160 
25 161 
25 167 
25 175 
25 189 
25 190 
25 205 
25 208 
25 220 
25 222 
26 27 
26 28 
26 29 
26 30 
26 35 
26 41 
26 49 
26 56 
26 63 
26 71 
26 86 
26 90 
26 99 
26 101 
26 107 
26 116 
26 128 
26 131 
26 136 
26 146 
26 161 
26 162 
26 176 
26 179 
26 186 
26 191 
26 205 
26 206 
26 221 
26 223 
27 28 
27 29 
27 30 
27 41 
27 42 
27 55 
27 57 
27 72 
27 74 
27 77 
27 87 
27 91 
27 102 
27 111 
27 117 
27 125 
27 132 
27 143 
27 147 
27 153 
27 162 
27 177 
27 180 
27 192 
27 193 
27 199 
27 207 
27 217 
27 222 
28 29 
28 30 
28 40 
28 43 
28 56 
28 58 
28 68 
28 73 
28 82 
28 88 
28 96 
28 103 
28 110 
28 118 
28 124 
28 133 
28 138 
28 148 
28 152 
28 163 
28 166 
28 178 
28 193 
28 195 
28 208 
28 209 
28 219 
28 223 
29 30 
29 43 
29 44 
29 57 
29 59 
29 69 
29 74 
29 85 
29 89 
29 101 
29 104 
29 113 
29 119 
29 127 
29 134 
29 141 
29 149 
29 155 
29 164 
29 169 
29 179 
29 183 
29 194 
29 197 
29 209 
29 211 
29 224 
30 42 
30 45 
30 58 
30 60 
30 62 
30 75 
30 83 
30 90 
30 100 
30 105 
30 114 
30 120 
30 121 
30 135 
30 142 
30 150 
30 164 
30 165 
30 170 
30 180 
30 184 
30 195 
30 198 
30 210 
30 221 
30 225 
31 32 
31 33 
31 34 
31 35 
31 36 
31 37 
31 38 
31 39 
31 40 
31 41 
31 42 
31 43 
31 44 
31 45 
31 46 
31 59 
31 61 
31 70 
31 76 
31 80 
31 91 
31 97 
31 106 
31 120 
31 121 
31 131 
31 136 
31 148 
31 151 
31 159 
31 166 
31 168 
31 181 
31 188 
31 196 
31 207 
31 211 
31 214 
32 33 
32 34 
32 35 
32 36 
32 37 
32 38 
32 39 
32 40 
32 41 
32 42 
32 43 
32 44 
32 45 
32 46 
32 47 
32 62 
32 75 
32 77 
32 89 
32 92 
32 103 
32 107 
32 117 
32 122 
32 129 
32 137 
32 146 
32 152 
32 157 
32 167 
32 175 
32 182 
32 185 
32 197 
32 201 
32 212 
32 218 
33 34 
33 35 
33 36 
33 37 
33 38 
33 39 
33 40 
33 41 
33 42 
33 43 
33 44 
33 45 
33 48 
33 54 
33 63 
33 71 
33 78 
33 88 
33 93 
33 102 
33 108 
33 115 
33 123 
33 134 
33 138 
33 139 
33 151 
33 153 
33 168 
33 171 
33 183 
33 187 
33 198 
33 210 
33 212 
33 213 
34 35 
34 36 
34 37 
34 38 
34 39 
34 40 
34 41 
34 42 
34 43 
34 44 
34 45 
34 48 
34 49 
34 64 
34 73 
34 79 
34 84 
34 92 
34 94 
34 109 
34 112 
34 124 
34 135 
34 139 
34 145 
34 154 
34 156 
34 169 
34 177 
34 181 
34 184 
34 199 
34 203 
34 214 
34 224 
35 36 
35 37 
35 38 
35 39 
35 40 
35 41 
35 42 
35 43 
35 44 
35 45 
35 49 
35 50 
35 63 
35 65 
35 80 
35 90 
35 95 
35 99 
35 107 
35 110 
35 125 
35 128 
35 136 
35 140 
35 155 
35 162 
35 170 
35 179 
35 185 
35 186 
35 200 
35 205 
35 215 
35 223 
36 37 
36 38 
36 39 
36 40 
36 41 
36 42 
36 43 
36 44 
36 45 
36 51 
36 60 
36 64 
36 66 
36 81 
36 86 
36 95 
36 96 
36 106 
36 111 
36 126 
36 130 
36 141 
36 147 
36 156 
36 163 
36 171 
36 173 
36 182 
36 186 
36 201 
36 204 
36 213 
36 216 
37 38 
37 39 
37 40 
37 41 
37 42 
37 43 
37 44 
37 45 
37 51 
37 52 
37 65 
37 67 
37 79 
37 82 
37 93 
37 97 
37 112 
37 119 
37 122 
37 127 
37 142 
37 150 
37 157 
37 158 
37 172 
37 174 
37 187 
37 192 
37 202 
37 206 
37 217 
37 220 
38 39 
38 40 
38 41 
38 42 
38 43 
38 44 
38 45 
38 52 
38 53 
38 68 
38 72 
38 76 
38 83 
38 98 
38 104 
38 113 
38 116 
38 126 
38 128 
38 143 
38 144 
38 154 
38 158 
38 173 
38 178 
38 188 
38 190 
38 200 
38 203 
38 218 
38 225 
39 40 
39 41 
39 42 
39 43 
39 44 
39 45 
39 47 
39 54 
39 61 
39 69 
39 78 
39 84 
39 99 
39 105 
39 114 
39 118 
39 129 
39 132 
39 140 
39 144 
39 159 
39 160 
39 174 
39 176 
39 189 
39 194 
39 202 
39 204 
39 216 
39 219 
40 41 
40 42 
40 43 
40 44 
40 45 
40 55 
40 56 
40 68 
40 70 
40 82 
40 85 
40 96 
40 100 
40 110 
40 115 
40 124 
40 130 
40 138 
40 145 
40 152 
40 160 
40 166 
40 175 
40 190 
40 195 
40 205 
40 209 
40 219 
40 220 
41 42 
41 43 
41 44 
41 45 
41 55 
41 56 
41 71 
41 74 
41 77 
41 86 
41 91 
41 101 
41 111 
41 116 
41 125 
41 131 
41 143 
41 146 
41 153 
41 161 
41 176 
41 180 
41 191 
41 193 
41 199 
41 206 
41 217 
41 221 
42 43 
42 44 
42 45 
42 57 
42 58 
42 62 
42 72 
42 83 
42 87 
42 100 
42 102 
42 114 
42 117 
42 121 
42 132 
42 142 
42 147 
42 162 
42 164 
42 170 
42 177 
42 184 
42 192 
42 198 
42 207 
42 221 
42 222 
43 44 
43 45 
43 57 
43 58 
43 69 
43 73 
43 85 
43 88 
43 101 
43 103 
43 113 
43 118 
43 127 
43 133 
43 141 
43 148 
43 155 
43 163 
43 169 
43 178 
43 183 
43 193 
43 197 
43 208 
43 211 
43 223 
44 45 
44 53 
44 59 
44 66 
44 74 
44 87 
44 89 
44 94 
44 104 
44 108 
44 119 
44 133 
44 134 
44 137 
44 149 
44 164 
44 165 
44 172 
44 179 
44 191 
44 194 
44 196 
44 209 
44 215 
44 224 
45 50 
45 60 
45 67 
45 75 
45 81 
45 90 
45 98 
45 105 
45 109 
45 120 
45 123 
45 135 
45 149 
45 150 
45 161 
45 165 
45 167 
45 180 
45 189 
45 195 
45 208 
45 210 
45 222 
45 225 
46 47 
46 48 
46 49 
46 50 
46 51 
46 52 
46 53 
46 54 
46 55 
46 56 
46 57 
46 58 
46 59 
46 60 
46 61 
46 75 
46 76 
46 89 
46 91 
46 103 
46 106 
46 117 
46 121 
46 129 
46 136 
46 146 
46 151 
46 157 
46 166 
46 175 
46 181 
46 185 
46 196 
46 201 
46 211 
46 218 
47 48 
47 49 
47 50 
47 51 
47 52 
47 53 
47 54 
47 55 
47 56 
47 57 
47 58 
47 59 
47 60 
47 61 
47 62 
47 77 
47 78 
47 92 
47 105 
47 107 
47 118 
47 122 
47 132 
47 137 
47 140 
47 152 
47 160 
47 167 
47 176 
47 182 
47 194 
47 197 
47 202 
47 212 
47 216 
48 49 
48 50 
48 51 
48 52 
48 53 
48 54 
48 55 
48 56 
48 57 
48 58 
48 59 
48 60 
48 63 
48 73 
48 78 
48 84 
48 92 
48 93 
48 108 
48 112 
48 123 
48 135 
48 138 
48 145 
48 153 
48 156 
48 168 
48 177 
48 181 
48 183 
48 198 
48 203 
48 213 
48 224 
49 50 
49 51 
49 52 
49 53 
49 54 
49 55 
49 56 
49 57 
49 58 
49 59 
49 60 
49 63 
49 64 
49 79 
49 90 
49 94 
49 99 
49 107 
49 109 
49 124 
49 128 
49 136 
49 139 
49 154 
49 162 
49 169 
49 179 
49 184 
49 186 
49 199 
49 205 
49 214 
49 223 
50 51 
50 52 
50 53 
50 54 
50 55 
50 56 
50 57 
50 58 
50 59 
50 60 
50 65 
50 67 
50 80 
50 81 
50 95 
50 98 
50 109 
50 110 
50 123 
50 125 
50 140 
50 149 
50 155 
50 161 
50 167 
50 170 
50 185 
50 189 
50 200 
50 208 
50 215 
50 222 
51 52 
51 53 
51 54 
51 55 
51 56 
51 57 
51 58 
51 59 
51 60 
51 65 
51 66 
51 79 
51 81 
51 93 
51 96 
51 111 
51 119 
51 122 
51 126 
51 141 
51 150 
51 156 
51 158 
51 171 
51 174 
51 186 
51 192 
51 201 
51 206 
51 216 
51 220 
52 53 
52 54 
52 55 
52 56 
52 57 
52 58 
52 59 
52 60 
52 67 
52 72 
52 76 
52 82 
52 97 
52 104 
52 112 
52 116 
52 126 
52 127 
52 142 
52 144 
52 154 
52 157 
52 172 
52 178 
52 187 
52 190 
52 200 
52 202 
52 217 
52 225 
53 54 
53 55 
53 56 
53 57 
53 58 
53 59 
53 60 
53 66 
53 68 
53 83 
53 87 
53 94 
53 98 
53 108 
53 113 
53 128 
53 133 
53 137 
53 143 
53 158 
53 165 
53 172 
53 173 
53 188 
53 191 
53 196 
53 203 
53 215 
53 218 
54 55 
54 56 
54 57 
54 58 
54 59 
54 60 
54 69 
54 71 
54 84 
54 88 
54 99 
54 102 
54 114 
54 115 
54 129 
54 134 
54 139 
54 144 
54 151 
54 159 
54 171 
54 174 
54 187 
54 189 
54 204 
54 210 
54 212 
54 219 
55 56 
55 57 
55 58 
55 59 
55 60 
55 70 
55 74 
55 77 
55 85 
55 91 
55 100 
55 111 
55 115 
55 125 
55 130 
55 143 
55 145 
55 153 
55 160 
55 175 
55 180 
55 190 
55 193 
55 199 
55 205 
55 217 
55 220 
56 57 
56 58 
56 59 
56 60 
56 68 
56 71 
56 82 
56 86 
56 96 
56 101 
56 110 
56 116 
56 124 
56 131 
56 138 
56 146 
56 152 
56 161 
56 166 
56 176 
56 191 
56 195 
56 206 
56 209 
56 219 
56 221 
57 58 
57 59 
57 60 
57 69 
57 72 
57 85 
57 87 
57 101 
57 102 
57 113 
57 117 
57 127 
57 132 
57 141 
57 147 
57 155 
57 162 
57 169 
57 177 
57 183 
57 192 
57 197 
57 207 
57 211 
57 222 
58 59 
58 60 
58 62 
58 73 
58 83 
58 88 
58 100 
58 103 
58 114 
58 118 
58 121 
58 133 
58 142 
58 148 
58 163 
58 164 
58 170 
58 178 
58 184 
58 193 
58 198 
58 208 
58 221 
58 223 
59 60 
59 70 
59 74 
59 80 
59 89 
59 97 
59 104 
59 119 
59 120 
59 131 
59 134 
59 148 
59 149 
59 159 
59 164 
59 168 
59 179 
59 188 
59 194 
59 207 
59 209 
59 214 
59 224 
60 64 
60 75 
60 86 
60 90 
60 95 
60 105 
60 106 
60 120 
60 130 
60 135 
60 147 
60 150 
60 163 
60 165 
60 173 
60 180 
60 182 
60 195 
60 204 
60 210 
60 213 
60 225 
61 62 
61 63 
61 64 
61 65 
61 66 
61 67 
61 68 
61 69 
61 70 
61 71 
61 72 
61 73 
61 74 
61 75 
61 76 
61 78 
61 91 
61 105 
61 106 
61 118 
61 121 
61 132 
61 136 
61 140 
61 151 
61 160 
61 166 
61 176 
61 181 
61 194 
61 196 
61 202 
61 211 
61 216 
62 63 
62 64 
62 65 
62 66 
62 67 
62 68 
62 69 
62 70 
62 71 
62 72 
62 73 
62 74 
62 75 
62 77 
62 83 
62 92 
62 100 
62 107 
62 114 
62 121 
62 122 
62 137 
62 142 
62 152 
62 164 
62 167 
62 170 
62 182 
62 184 
62 197 
62 198 
62 212 
62 221 
63 64 
63 65 
63 66 
63 67 
63 68 
63 69 
63 70 
63 71 
63 72 
63 73 
63 74 
63 75 
63 78 
63 90 
63 93 
63 99 
63 107 
63 108 
63 123 
63 128 
63 136 
63 138 
63 153 
63 162 
63 168 
63 179 
63 183 
63 186 
63 198 
63 205 
63 213 
63 223 
64 65 
64 66 
64 67 
64 68 
64 69 
64 70 
64 71 
64 72 
64 73 
64 74 
64 75 
64 79 
64 86 
64 94 
64 95 
64 106 
64 109 
64 124 
64 130 
64 139 
64 147 
64 154 
64 163 
64 169 
64 173 
64 182 
64 184 
64 199 
64 204 
64 213 
64 214 
65 66 
65 67 
65 68 
65 69 
65 70 
65 71 
65 72 
65 73 
65 74 
65 75 
65 79 
65 80 
65 93 
65 95 
65 110 
65 119 
65 122 
65 125 
65 140 
65 150 
65 155 
65 158 
65 170 
65 174 
65 185 
65 192 
65 200 
65 206 
65 215 
65 220 
66 67 
66 68 
66 69 
66 70 
66 71 
66 72 
66 73 
66 74 
66 75 
66 81 
66 87 
66 94 
66 96 
66 108 
66 111 
66 126 
66 133 
66 137 
66 141 
66 156 
66 165 
66 171 
66 172 
66 186 
66 191 
66 196 
66 201 
66 215 
66 216 
67 68 
67 69 
67 70 
67 71 
67 72 
67 73 
67 74 
67 75 
67 81 
67 82 
67 97 
67 98 
67 109 
67 112 
67 123 
67 127 
67 142 
67 149 
67 157 
67 161 
67 167 
67 172 
67 187 
67 189 
67 202 
67 208 
67 217 
67 222 
68 69 
68 70 
68 71 
68 72 
68 73 
68 74 
68 75 
68 82 
68 83 
68 96 
68 98 
68 110 
68 113 
68 124 
68 128 
68 138 
68 143 
68 152 
68 158 
68 166 
68 173 
68 188 
68 195 
68 203 
68 209 
68 218 
68 219 
69 70 
69 71 
69 72 
69 73 
69 74 
69 75 
69 84 
69 85 
69 99 
69 101 
69 113 
69 114 
69 127 
69 129 
69 141 
69 144 
69 155 
69 159 
69 169 
69 174 
69 183 
69 189 
69 197 
69 204 
69 211 
69 219 
70 71 
70 72 
70 73 
70 74 
70 75 
70 80 
70 85 
70 97 
70 100 
70 115 
70 120 
70 130 
70 131 
70 145 
70 148 
70 159 
70 160 
70 168 
70 175 
70 188 
70 190 
70 205 
70 207 
70 214 
70 220 
71 72 
71 73 
71 74 
71 75 
71 86 
71 88 
71 101 
71 102 
71 115 
71 116 
71 131 
71 134 
71 139 
71 146 
71 151 
71 161 
71 171 
71 176 
71 187 
71 191 
71 206 
71 210 
71 212 
71 221 
72 73 
72 74 
72 75 
72 76 
72 87 
72 102 
72 104 
72 116 
72 117 
72 126 
72 132 
72 144 
72 147 
72 154 
72 162 
72 177 
72 178 
72 190 
72 192 
72 200 
72 207 
72 222 
72 225 
73 74 
73 75 
73 84 
73 88 
73 92 
73 103 
73 112 
73 118 
73 133 
73 135 
73 145 
73 148 
73 156 
73 163 
73 177 
73 178 
73 181 
73 193 
73 203 
73 208 
73 223 
73 224 
74 75 
74 77 
74 89 
74 91 
74 104 
74 111 
74 119 
74 125 
74 134 
74 143 
74 149 
74 153 
74 164 
74 179 
74 180 
74 193 
74 194 
74 199 
74 209 
74 217 
74 224 
75 89 
75 90 
75 103 
75 105 
75 117 
75 120 
75 129 
75 135 
75 146 
75 150 
75 157 
75 165 
75 175 
75 180 
75 185 
75 195 
75 201 
75 210 
75 218 
75 225 
76 77 
76 78 
76 79 
76 80 
76 81 
76 82 
76 83 
76 84 
76 85 
76 86 
76 87 
76 88 
76 89 
76 90 
76 91 
76 104 
76 106 
76 116 
76 121 
76 126 
76 136 
76 144 
76 151 
76 154 
76 166 
76 178 
76 181 
76 190 
76 196 
76 200 
76 211 
76 225 
77 78 
77 79 
77 80 
77 81 
77 82 
77 83 
77 84 
77 85 
77 86 
77 87 
77 88 
77 89 
77 90 
77 91 
77 92 
77 107 
77 111 
77 122 
77 125 
77 137 
77 143 
77 152 
77 153 
77 167 
77 180 
77 182 
77 193 
77 197 
77 199 
77 212 
77 217 
78 79 
78 80 
78 81 
78 82 
78 83 
78 84 
78 85 
78 86 
78 87 
78 88 
78 89 
78 90 
78 93 
78 105 
78 108 
78 118 
78 123 
78 132 
78 138 
78 140 
78 153 
78 160 
78 168 
78 176 
78 183 
78 194 
78 198 
78 202 
78 213 
78 216 
79 80 
79 81 
79 82 
79 83 
79 84 
79 85 
79 86 
79 87 
79 88 
79 89 
79 90 
79 93 
79 94 
79 109 
79 119 
79 122 
79 124 
79 139 
79 150 
79 154 
79 158 
79 169 
79 174 
79 184 
79 192 
79 199 
79 206 
79 214 
79 220 
80 81 
80 82 
80 83 
80 84 
80 85 
80 86 
80 87 
80 88 
80 89 
80 90 
80 95 
80 97 
80 110 
80 120 
80 125 
80 131 
80 140 
80 148 
80 155 
80 159 
80 168 
80 170 
80 185 
80 188 
80 200 
80 207 
80 214 
80 215 
81 82 
81 83 
81 84 
81 85 
81 86 
81 87 
81 88 
81 89 
81 90 
81 96 
81 98 
81 109 
81 111 
81 123 
81 126 
81 141 
81 149 
81 156 
81 161 
81 167 
81 171 
81 186 
81 189 
81 201 
81 208 
81 216 
81 222 
82 83 
82 84 
82 85 
82 86 
82 87 
82 88 
82 89 
82 90 
82 96 
82 97 
82 110 
82 112 
82 124 
82 127 
82 138 
82 142 
82 152 
82 157 
82 166 
82 172 
82 187 
82 195 
82 202 
82 209 
82 217 
82 219 
83 84 
83 85 
83 86 
83 87 
83 88 
83 89 
83 90 
83 98 
83 100 
83 113 
83 114 
83 121 
83 128 
83 142 
83 143 
83 158 
83 164 
83 170 
83 173 
83 184 
83 188 
83 198 
83 203 
83 218 
83 221 
84 85 
84 86 
84 87 
84 88 
84 89 
84 90 
84 92 
84 99 
84 112 
84 114 
84 129 
84 135 
84 144 
84 145 
84 156 
84 159 
84 174 
84 177 
84 181 
84 189 
84 203 
84 204 
84 219 
84 224 
85 86 
85 87 
85 88 
85 89 
85 90 
85 100 
85 101 
85 113 
85 115 
85 127 
85 130 
85 141 
85 145 
85 155 
85 160 
85 169 
85 175 
85 183 
85 190 
85 197 
85 205 
85 211 
85 220 
86 87 
86 88 
86 89 
86 90 
86 95 
86 101 
86 106 
86 116 
86 130 
86 131 
86 146 
86 147 
86 161 
86 163 
86 173 
86 176 
86 182 
86 191 
86 204 
86 206 
86 213 
86 221 
87 88 
87 89 
87 90 
87 94 
87 102 
87 108 
87 117 
87 132 
87 133 
87 137 
87 147 
87 162 
87 165 
87 172 
87 177 
87 191 
87 192 
87 196 
87 207 
87 215 
87 222 
88 89 
88 90 
88 102 
88 103 
88 115 
88 118 
88 133 
88 134 
88 139 
88 148 
88 151 
88 163 
88 171 
88 178 
88 187 
88 193 
88 208 
88 210 
88 212 
88 223 
89 90 
89 103 
89 104 
89 117 
89 119 
89 129 
89 134 
89 146 
89 149 
89 157 
89 164 
89 175 
89 179 
89 185 
89 194 
89 201 
89 209 
89 218 
89 224 
90 99 
90 105 
90 107 
90 120 
90 128 
90 135 
90 136 
90 150 
90 162 
90 165 
90 179 
90 180 
90 186 
90 195 
90 205 
90 210 
90 223 
90 225 
91 92 
91 93 
91 94 
91 95 
91 96 
91 97 
91 98 
91 99 
91 100 
91 101 
91 102 
91 103 
91 104 
91 105 
91 106 
91 111 
91 121 
91 125 
91 136 
91 143 
91 151 
91 153 
91 166 
91 180 
91 181 
91 193 
91 196 
91 199 
91 211 
91 217 
92 93 
92 94 
92 95 
92 96 
92 97 
92 98 
92 99 
92 100 
92 101 
92 102 
92 103 
92 104 
92 105 
92 107 
92 112 
92 122 
92 135 
92 137 
92 145 
92 152 
92 156 
92 167 
92 177 
92 181 
92 182 
92 197 
92 203 
92 212 
92 224 
93 94 
93 95 
93 96 
93 97 
93 98 
93 99 
93 100 
93 101 
93 102 
93 103 
93 104 
93 105 
93 108 
93 119 
93 122 
93 123 
93 138 
93 150 
93 153 
93 158 
93 168 
93 174 
93 183 
93 192 
93 198 
93 206 
93 213 
93 220 
94 95 
94 96 
94 97 
94 98 
94 99 
94 100 
94 101 
94 102 
94 103 
94 104 
94 105 
94 108 
94 109 
94 124 
94 133 
94 137 
94 139 
94 154 
94 165 
94 169 
94 172 
94 184 
94 191 
94 196 
94 199 
94 214 
94 215 
95 96 
95 97 
95 98 
95 99 
95 100 
95 101 
95 102 
95 103 
95 104 
95 105 
95 106 
95 110 
95 125 
95 130 
95 140 
95 147 
95 155 
95 163 
95 170 
95 173 
95 182 
95 185 
95 200 
95 204 
95 213 
95 215 
96 97 
96 98 
96 99 
96 100 
96 101 
96 102 
96 103 
96 104 
96 105 
96 110 
96 111 
96 124 
96 126 
96 138 
96 141 
96 152 
96 156 
96 166 
96 171 
96 186 
96 195 
96 201 
96 209 
96 216 
96 219 
97 98 
97 99 
97 100 
97 101 
97 102 
97 103 
97 104 
97 105 
97 112 
97 120 
97 127 
97 131 
97 142 
97 148 
97 157 
97 159 
97 168 
97 172 
97 187 
97 188 
97 202 
97 207 
97 214 
97 217 
98 99 
98 100 
98 101 
98 102 
98 103 
98 104 
98 105 
98 109 
98 113 
98 123 
98 128 
98 143 
98 149 
98 158 
98 161 
98 167 
98 173 
98 188 
98 189 
98 203 
98 208 
98 218 
98 222 
99 100 
99 101 
99 102 
99 103 
99 104 
99 105 
99 107 
99 114 
99 128 
99 129 
99 136 
99 144 
99 159 
99 162 
99 174 
99 179 
99 186 
99 189 
99 204 
99 205 
99 219 
99 223 
100 101 
100 102 
100 103 
100 104 
100 105 
100 114 
100 115 
100 121 
100 130 
100 142 
100 145 
100 160 
100 164 
100 170 
100 175 
100 184 
100 190 
100 198 
100 205 
100 220 
100 221 
101 102 
101 103 
101 104 
101 105 
101 113 
101 116 
101 127 
101 131 
101 141 
101 146 
101 155 
101 161 
101 169 
101 176 
101 183 
101 191 
101 197 
101 206 
101 211 
101 221 
102 103 
102 104 
102 105 
102 115 
102 117 
102 132 
102 134 
102 139 
102 147 
102 151 
102 162 
102 171 
102 177 
102 187 
102 192 
102 207 
102 210 
102 212 
102 222 
103 104 
103 105 
103 117 
103 118 
103 129 
103 133 
103 146 
103 148 
103 157 
103 163 
103 175 
103 178 
103 185 
103 193 
103 201 
103 208 
103 218 
103 223 
104 105 
104 116 
104 119 
104 126 
104 134 
104 144 
104 149 
104 154 
104 164 
104 178 
104 179 
104 190 
104 194 
104 200 
104 209 
104 224 
104 225 
105 118 
105 120 
105 132 
105 135 
105 140 
105 150 
105 160 
105 165 
105 176 
105 180 
105 194 
105 195 
105 202 
105 210 
105 216 
105 225 
106 107 
106 108 
106 109 
106 110 
106 111 
106 112 
106 113 
106 114 
106 115 
106 116 
106 117 
106 118 
106 119 
106 120 
106 121 
106 130 
106 136 
106 147 
106 151 
106 163 
106 166 
106 173 
106 181 
106 182 
106 196 
106 204 
106 211 
106 213 
107 108 
107 109 
107 110 
107 111 
107 112 
107 113 
107 114 
107 115 
107 116 
107 117 
107 118 
107 119 
107 120 
107 122 
107 128 
107 136 
107 137 
107 152 
107 162 
107 167 
107 179 
107 182 
107 186 
107 197 
107 205 
107 212 
107 223 
108 109 
108 110 
108 111 
108 112 
108 113 
108 114 
108 115 
108 116 
108 117 
108 118 
108 119 
108 120 
108 123 
108 133 
108 137 
108 138 
108 153 
108 165 
108 168 
108 172 
108 183 
108 191 
108 196 
108 198 
108 213 
108 215 
109 110 
109 111 
109 112 
109 113 
109 114 
109 115 
109 116 
109 117 
109 118 
109 119 
109 120 
109 123 
109 124 
109 139 
109 149 
109 154 
109 161 
109 167 
109 169 
109 184 
109 189 
109 199 
109 208 
109 214 
109 222 
110 111 
110 112 
110 113 
110 114 
110 115 
110 116 
110 117 
110 118 
110 119 
110 120 
110 124 
110 125 
110 138 
110 140 
110 152 
110 155 
110 166 
110 170 
110 185 
110 195 
110 200 
110 209 
110 215 
110 219 
111 112 
111 113 
111 114 
111 115 
111 116 
111 117 
111 118 
111 119 
111 120 
111 125 
111 126 
111 141 
111 143 
111 153 
111 156 
111 171 
111 180 
111 186 
111 193 
111 199 
111 201 
111 216 
111 217 
112 113 
112 114 
112 115 
112 116 
112 117 
112 118 
112 119 
112 120 
112 127 
112 135 
112 142 
112 145 
112 156 
112 157 
112 172 
112 177 
112 181 
112 187 
112 202 
112 203 
112 217 
112 224 
113 114 
113 115 
113 116 
113 117 
113 118 
113 119 
113 120 
113 127 
113 128 
113 141 
113 143 
113 155 
113 158 
113 169 
113 173 
113 183 
113 188 
113 197 
113 203 
113 211 
113 218 
114 115 
114 116 
114 117 
114 118 
114 119 
114 120 
114 121 
114 129 
114 142 
114 144 
114 159 
114 164 
114 170 
114 174 
114 184 
114 189 
114 198 
114 204 
114 219 
114 221 
115 116 
115 117 
115 118 
115 119 
115 120 
115 130 
115 134 
115 139 
115 145 
115 151 
115 160 
115 171 
115 175 
115 187 
115 190 
115 205 
115 210 
115 212 
115 220 
116 117 
116 118 
116 119 
116 120 
116 126 
116 131 
116 144 
116 146 
116 154 
116 161 
116 176 
116 178 
116 190 
116 191 
116 200 
116 206 
116 221 
116 225 
117 118 
117 119 
117 120 
117 129 
117 132 
117 146 
117 147 
117 157 
117 162 
117 175 
117 177 
117 185 
117 192 
117 201 
117 207 
117 218 
117 222 
118 119 
118 120 
118 132 
118 133 
118 140 
118 148 
118 160 
118 163 
118 176 
118 178 
118 193 
118 194 
118 202 
118 208 
118 216 
118 223 
119 120 
119 122 
119 134 
119 149 
119 150 
119 158 
119 164 
119 174 
119 179 
119 192 
119 194 
119 206 
119 209 
119 220 
119 224 
120 131 
120 135 
120 148 
120 150 
120 159 
120 165 
120 168 
120 180 
120 188 
120 195 
120 207 
120 210 
120 214 
120 225 
121 122 
121 123 
121 124 
121 125 
121 126 
121 127 
121 128 
121 129 
121 130 
121 131 
121 132 
121 133 
121 134 
121 135 
121 136 
121 142 
121 151 
121 164 
121 166 
121 170 
121 181 
121 184 
121 196 
121 198 
121 211 
121 221 
122 123 
122 124 
122 125 
122 126 
122 127 
122 128 
122 129 
122 130 
122 131 
122 132 
122 133 
122 134 
122 135 
122 137 
122 150 
122 152 
122 158 
122 167 
122 174 
122 182 
122 192 
122 197 
122 206 
122 212 
122 220 
123 124 
123 125 
123 126 
123 127 
123 128 
123 129 
123 130 
123 131 
123 132 
123 133 
123 134 
123 135 
123 138 
123 149 
123 153 
123 161 
123 167 
123 168 
123 183 
123 189 
123 198 
123 208 
123 213 
123 222 
124 125 
124 126 
124 127 
124 128 
124 129 
124 130 
124 131 
124 132 
124 133 
124 134 
124 135 
124 138 
124 139 
124 152 
124 154 
124 166 
124 169 
124 184 
124 195 
124 199 
124 209 
124 214 
124 219 
125 126 
125 127 
125 128 
125 129 
125 130 
125 131 
125 132 
125 133 
125 134 
125 135 
125 140 
125 143 
125 153 
125 155 
125 170 
125 180 
125 185 
125 193 
125 199 
125 200 
125 215 
125 217 
126 127 
126 128 
126 129 
126 130 
126 131 
126 132 
126 133 
126 134 
126 135 
126 141 
126 144 
126 154 
126 156 
126 171 
126 178 
126 186 
126 190 
126 200 
126 201 
126 216 
126 225 
127 128 
127 129 
127 130 
127 131 
127 132 
127 133 
127 134 
127 135 
127 141 
127 142 
127 155 
127 157 
127 169 
127 172 
127 183 
127 187 
127 197 
127 202 
127 211 
127 217 
128 129 
128 130 
128 131 
128 132 
128 133 
128 134 
128 135 
128 136 
128 143 
128 158 
128 162 
128 173 
128 179 
128 186 
128 188 
128 203 
128 205 
128 218 
128 223 
129 130 
129 131 
129 132 
129 133 
129 134 
129 135 
129 144 
129 146 
129 157 
129 159 
129 174 
129 175 
129 185 
129 189 
129 201 
129 204 
129 218 
129 219 
130 131 
130 132 
130 133 
130 134 
130 135 
130 145 
130 147 
130 160 
130 163 
130 173 
130 175 
130 182 
130 190 
130 204 
130 205 
130 213 
130 220 
131 132 
131 133 
131 134 
131 135 
131 146 
131 148 
131 159 
131 161 
131 168 
131 176 
131 188 
131 191 
131 206 
131 207 
131 214 
131 221 
132 133 
132 134 
132 135 
132 140 
132 147 
132 160 
132 162 
132 176 
132 177 
132 192 
132 194 
132 202 
132 207 
132 216 
132 222 
133 134 
133 135 
133 137 
133 148 
133 163 
133 165 
133 172 
133 178 
133 191 
133 193 
133 196 
133 208 
133 215 
133 223 
134 135 
134 139 
134 149 
134 151 
134 164 
134 171 
134 179 
134 187 
134 194 
134 209 
134 210 
134 212 
134 224 
135 145 
135 150 
135 156 
135 165 
135 177 
135 180 
135 181 
135 195 
135 203 
135 210 
135 224 
135 225 
136 137 
136 138 
136 139 
136 140 
136 141 
136 142 
136 143 
136 144 
136 145 
136 146 
136 147 
136 148 
136 149 
136 150 
136 151 
136 162 
136 166 
136 179 
136 181 
136 186 
136 196 
136 205 
136 211 
136 223 
137 138 
137 139 
137 140 
137 141 
137 142 
137 143 
137 144 
137 145 
137 146 
137 147 
137 148 
137 149 
137 150 
137 152 
137 165 
137 167 
137 172 
137 182 
137 191 
137 196 
137 197 
137 212 
137 215 
138 139 
138 140 
138 141 
138 142 
138 143 
138 144 
138 145 
138 146 
138 147 
138 148 
138 149 
138 150 
138 152 
138 153 
138 166 
138 168 
138 183 
138 195 
138 198 
138 209 
138 213 
138 219 
139 140 
139 141 
139 142 
139 143 
139 144 
139 145 
139 146 
139 147 
139 148 
139 149 
139 150 
139 151 
139 154 
139 169 
139 171 
139 184 
139 187 
139 199 
139 210 
139 212 
139 214 
140 141 
140 142 
140 143 
140 144 
140 145 
140 146 
140 147 
140 148 
140 149 
140 150 
140 155 
140 160 
140 170 
140 176 
140 185 
140 194 
140 200 
140 202 
140 215 
140 216 
141 142 
141 143 
141 144 
141 145 
141 146 
141 147 
141 148 
141 149 
141 150 
141 155 
141 156 
141 169 
141 171 
141 183 
141 186 
141 197 
141 201 
141 211 
141 216 
142 143 
142 144 
142 145 
142 146 
142 147 
142 148 
142 149 
142 150 
142 157 
142 164 
142 170 
142 172 
142 184 
142 187 
142 198 
142 202 
142 217 
142 221 
143 144 
143 145 
143 146 
143 147 
143 148 
143 149 
143 150 
143 153 
143 158 
143 173 
143 180 
143 188 
143 193 
143 199 
143 203 
143 217 
143 218 
144 145 
144 146 
144 147 
144 148 
144 149 
144 150 
144 154 
144 159 
144 174 
144 178 
144 189 
144 190 
144 200 
144 204 
144 219 
144 225 
145 146 
145 147 
145 148 
145 149 
145 150 
145 156 
145 160 
145 175 
145 177 
145 181 
145 190 
145 203 
145 205 
145 220 
145 224 
146 147 
146 148 
146 149 
146 150 
146 157 
146 161 
146 175 
146 176 
146 185 
146 191 
146 201 
146 206 
146 218 
146 221 
147 148 
147 149 
147 150 
147 162 
147 163 
147 173 
147 177 
147 182 
147 192 
147 204 
147 207 
147 213 
147 222 
148 149 
148 150 
148 159 
148 163 
148 168 
148 178 
148 188 
148 193 
148 207 
148 208 
148 214 
148 223 
149 150 
149 161 
149 164 
149 167 
149 179 
149 189 
149 194 
149 208 
149 209 
149 222 
149 224 
150 158 
150 165 
150 174 
150 180 
150 192 
150 195 
150 206 
150 210 
150 220 
150 225 
151 152 
151 153 
151 154 
151 155 
151 156 
151 157 
151 158 
151 159 
151 160 
151 161 
151 162 
151 163 
151 164 
151 165 
151 166 
151 171 
151 181 
151 187 
151 196 
151 210 
151 211 
151 212 
152 153 
152 154 
152 155 
152 156 
152 157 
152 158 
152 159 
152 160 
152 161 
152 162 
152 163 
152 164 
152 165 
152 166 
152 167 
152 182 
152 195 
152 197 
152 209 
152 212 
152 219 
153 154 
153 155 
153 156 
153 157 
153 158 
153 159 
153 160 
153 161 
153 162 
153 163 
153 164 
153 165 
153 168 
153 180 
153 183 
153 193 
153 198 
153 199 
153 213 
153 217 
154 155 
154 156 
154 157 
154 158 
154 159 
154 160 
154 161 
154 162 
154 163 
154 164 
154 165 
154 169 
154 178 
154 184 
154 190 
154 199 
154 200 
154 214 
154 225 
155 156 
155 157 
155 158 
155 159 
155 160 
155 161 
155 162 
155 163 
155 164 
155 165 
155 169 
155 170 
155 183 
155 185 
155 197 
155 200 
155 211 
155 215 
156 157 
156 158 
156 159 
156 160 
156 161 
156 162 
156 163 
156 164 
156 165 
156 171 
156 177 
156 181 
156 186 
156 201 
156 203 
156 216 
156 224 
157 158 
157 159 
157 160 
157 161 
157 162 
157 163 
157 164 
157 165 
157 172 
157 175 
157 185 
157 187 
157 201 
157 202 
157 217 
157 218 
158 159 
158 160 
158 161 
158 162 
158 163 
158 164 
158 165 
158 173 
158 174 
158 188 
158 192 
158 203 
158 206 
158 218 
158 220 
159 160 
159 161 
159 162 
159 163 
159 164 
159 165 
159 168 
159 174 
159 188 
159 189 
159 204 
159 207 
159 214 
159 219 
160 161 
160 162 
160 163 
160 164 
160 165 
160 175 
160 176 
160 190 
160 194 
160 202 
160 205 
160 216 
160 220 
161 162 
161 163 
161 164 
161 165 
161 167 
161 176 
161 189 
161 191 
161 206 
161 208 
161 221 
161 222 
162 163 
162 164 
162 165 
162 177 
162 179 
162 186 
162 192 
162 205 
162 207 
162 222 
162 223 
163 164 
163 165 
163 173 
163 178 
163 182 
163 193 
163 204 
163 208 
163 213 
163 223 
164 165 
164 170 
164 179 
164 184 
164 194 
164 198 
164 209 
164 221 
164 224 
165 172 
165 180 
165 191 
165 195 
165 196 
165 210 
165 215 
165 225 
166 167 
166 168 
166 169 
166 170 
166 171 
166 172 
166 173 
166 174 
166 175 
166 176 
166 177 
166 178 
166 179 
166 180 
166 181 
166 195 
166 196 
166 209 
166 211 
166 219 
167 168 
167 169 
167 170 
167 171 
167 172 
167 173 
167 174 
167 175 
167 176 
167 177 
167 178 
167 179 
167 180 
167 182 
167 189 
167 197 
167 208 
167 212 
167 222 
168 169 
168 170 
168 171 
168 172 
168 173 
168 174 
168 175 
168 176 
168 177 
168 178 
168 179 
168 180 
168 183 
168 188 
168 198 
168 207 
168 213 
168 214 
169 170 
169 171 
169 172 
169 173 
169 174 
169 175 
169 176 
169 177 
169 178 
169 179 
169 180 
169 183 
169 184 
169 197 
169 199 
169 211 
169 214 
170 171 
170 172 
170 173 
170 174 
170 175 
170 176 
170 177 
170 178 
170 179 
170 180 
170 184 
170 185 
170 198 
170 200 
170 215 
170 221 
171 172 
171 173 
171 174 
171 175 
171 176 
171 177 
171 178 
171 179 
171 180 
171 186 
171 187 
171 201 
171 210 
171 212 
171 216 
172 173 
172 174 
172 175 
172 176 
172 177 
172 178 
172 179 
172 180 
172 187 
172 191 
172 196 
172 202 
172 215 
172 217 
173 174 
173 175 
173 176 
173 177 
173 178 
173 179 
173 180 
173 182 
173 188 
173 203 
173 204 
173 213 
173 218 
174 175 
174 176 
174 177 
174 178 
174 179 
174 180 
174 189 
174 192 
174 204 
174 206 
174 219 
174 220 
175 176 
175 177 
175 178 
175 179 
175 180 
175 185 
175 190 
175 201 
175 205 
175 218 
175 220 
176 177 
176 178 
176 179 
176 180 
176 191 
176 194 
176 202 
176 206 
176 216 
176 221 
177 178 
177 179 
177 180 
177 181 
177 192 
177 203 
177 207 
177 222 
177 224 
178 179 
178 180 
178 190 
178 193 
178 200 
178 208 
178 223 
178 225 
179 180 
179 186 
179 194 
179 205 
179 209 
179 223 
179 224 
180 193 
180 195 
180 199 
180 210 
180 217 
180 225 
181 182 
181 183 
181 184 
181 185 
181 186 
181 187 
181 188 
181 189 
181 190 
181 191 
181 192 
181 193 
181 194 
181 195 
181 196 
181 203 
181 211 
181 224 
182 183 
182 184 
182 185 
182 186 
182 187 
182 188 
182 189 
182 190 
182 191 
182 192 
182 193 
182 194 
182 195 
182 197 
182 204 
182 212 
182 213 
183 184 
183 185 
183 186 
183 187 
183 188 
183 189 
183 190 
183 191 
183 192 
183 193 
183 194 
183 195 
183 197 
183 198 
183 211 
183 213 
184 185 
184 186 
184 187 
184 188 
184 189 
184 190 
184 191 
184 192 
184 193 
184 194 
184 195 
184 198 
184 199 
184 214 
184 221 
185 186 
185 187 
185 188 
185 189 
185 190 
185 191 
185 192 
185 193 
185 194 
185 195 
185 200 
185 201 
185 215 
185 218 
186 187 
186 188 
186 189 
186 190 
186 191 
186 192 
186 193 
186 194 
186 195 
186 201 
186 205 
186 216 
186 223 
187 188 
187 189 
187 190 
187 191 
187 192 
187 193 
187 194 
187 195 
187 202 
187 210 
187 212 
187 217 
188 189 
188 190 
188 191 
188 192 
188 193 
188 194 
188 195 
188 203 
188 207 
188 214 
188 218 
189 190 
189 191 
189 192 
189 193 
189 194 
189 195 
189 204 
189 208 
189 219 
189 222 
190 191 
190 192 
190 193 
190 194 
190 195 
190 200 
190 205 
190 220 
190 225 
191 192 
191 193 
191 194 
191 195 
191 196 
191 206 
191 215 
191 221 
192 193 
192 194 
192 195 
192 206 
192 207 
192 220 
192 222 
193 194 
193 195 
193 199 
193 208 
193 217 
193 223 
194 195 
194 202 
194 209 
194 216 
194 224 
195 209 
195 210 
195 219 
195 225 
196 197 
196 198 
196 199 
196 200 
196 201 
196 202 
196 203 
196 204 
196 205 
196 206 
196 207 
196 208 
196 209 
196 210 
196 211 
196 215 
197 198 
197 199 
197 200 
197 201 
197 202 
197 203 
197 204 
197 205 
197 206 
197 207 
197 208 
197 209 
197 210 
197 211 
197 212 
198 199 
198 200 
198 201 
198 202 
198 203 
198 204 
198 205 
198 206 
198 207 
198 208 
198 209 
198 210 
198 213 
198 221 
199 200 
199 201 
199 202 
199 203 
199 204 
199 205 
199 206 
199 207 
199 208 
199 209 
199 210 
199 214 
199 217 
200 201 
200 202 
200 203 
200 204 
200 205 
200 206 
200 207 
200 208 
200 209 
200 210 
200 215 
200 225 
201 202 
201 203 
201 204 
201 205 
201 206 
201 207 
201 208 
201 209 
201 210 
201 216 
201 218 
202 203 
202 204 
202 205 
202 206 
202 207 
202 208 
202 209 
202 210 
202 216 
202 217 
203 204 
203 205 
203 206 
203 207 
203 208 
203 209 
203 210 
203 218 
203 224 
204 205 
204 206 
204 207 
204 208 
204 209 
204 210 
204 213 
204 219 
205 206 
205 207 
205 208 
205 209 
205 210 
205 220 
205 223 
206 207 
206 208 
206 209 
206 210 
206 220 
206 221 
207 208 
207 209 
207 210 
207 214 
207 222 
208 209 
208 210 
208 222 
208 223 
209 210 
209 219 
209 224 
210 212 
210 225 
211 212 
211 213 
211 214 
211 215 
211 216 
211 217 
211 218 
211 219 
211 220 
211 221 
211 222 
211 223 
211 224 
211 225 
212 213 
212 214 
212 215 
212 216 
212 217 
212 218 
212 219 
212 220 
212 221 
212 222 
212 223 
212 224 
212 225 
213 214 
213 215 
213 216 
213 217 
213 218 
213 219 
213 220 
213 221 
213 222 
213 223 
213 224 
213 225 
214 215 
214 216 
214 217 
214 218 
214 219 
214 220 
214 221 
214 222 
214 223 
214 224 
214 225 
215 216 
215 217 
215 218 
215 219 
215 220 
215 221 
215 222 
215 223 
215 224 
215 225 
216 217 
216 218 
216 219 
216 220 
216 221 
216 222 
216 223 
216 224 
216 225 
217 218 
217 219 
217 220 
217 221 
217 222 
217 223 
217 224 
217 225 
218 219 
218 220 
218 221 
218 222 
218 223 
218 224 
218 225 
219 220 
219 221 
219 222 
219 223 
219 224 
219 225 
220 221 
220 222 
220 223 
220 224 
220 225 
221 222 
221 223 
221 224 
221 225 
222 223 
222 224 
222 225 
223 224 
223 225 
224 225 
